CMD:
./solvers/bin/cadical --plain --no-reduce -t 1600 ./data/cnfs//bobuns2p10d100l/bobuns2p10d100l.67.cnf

c --- [ banner ] -------------------------------------------------------------
c 
c CaDiCaL SAT Solver
c Copyright (c) 2016-2024
c A. Biere, M. Fleury, N. Froleyks, K. Fazekas, F. Pollitt, T. Faller
c JKU Linz, University of Freiburg, TU Wien
c 
c Version 2.1.3 5296d3d2a9bf48c154ab2acb5e44625776d821bf
c g++ (Gentoo 12.3.1_p20230526 p2) 12.3.1 20230526 -Wall -Wextra -O3 -DNDEBUG
c Sat Aug 9 07:26:21 PDT 2025 Linux cedar2.int.cedar.computecanada.ca 5.14.0-362.24.2.el9_3.x86_64 x86_64
c 
c --- [ limit ] --------------------------------------------------------------
c 
c setting time limit to 1600 seconds real time (due to '-t 1600')
c 
c --- [ parsing input ] ------------------------------------------------------
c 
c reading DIMACS file from './data/cnfs//bobuns2p10d100l/bobuns2p10d100l.67.cnf'
c opening file to read './data/cnfs//bobuns2p10d100l/bobuns2p10d100l.67.cnf'
c found 'p cnf 1420280 4240036' header
c parsed 4240036 clauses in 0.61 seconds process time
c 
c --- [ options ] ------------------------------------------------------------
c 
c   --compact=false                (different from default 'true')
c   --decompose=false              (different from default 'true')
c   --deduplicate=false            (different from default 'true')
c   --elim=false                   (different from default 'true')
c   --probe=false                  (different from default 'true')
c   --reduce=false                 (different from default 'true')
c   --subsume=false                (different from default 'true')
c   --ternary=false                (different from default 'true')
c   --transred=false               (different from default 'true')
c   --vivify=false                 (different from default 'true')
c 
c --- [ solving ] ------------------------------------------------------------
c 
c time measured in process time since initialization
c 
c  seconds   reductions  redundant   irredundant
c          MB    restarts       trail         variables
c           level   conflicts       glue            remaining
c 
c *  0.61 647  0 0   0    0    0  0% 0 4223807 1408301 99%
c {  0.62 648  0 0   0    0    0  0% 0 4223807 1408301 99%
c i  0.75 648 77 0   7  272  267  1% 2 4223807 1408297 99%
c i  0.76 648 74 0  12  287  281  1% 2 4223807 1408289 99%
c i  0.76 648 73 0  14  291  284  1% 2 4223807 1408284 99%
c i  0.76 648 72 0  15  294  286  1% 2 4223807 1408282 99%
c i  0.76 648 72 0  15  295  286  1% 2 4223807 1408281 99%
c i  0.76 648 71 0  17  300  290  1% 2 4223807 1408280 99%
c i  0.76 648 70 0  17  301  290  1% 2 4223807 1408276 99%
c i  0.76 648 70 0  18  304  292  1% 2 4223807 1408275 99%
c i  0.76 648 69 0  18  306  292  1% 2 4223807 1408274 99%
c i  0.76 648 69 0  18  308  293  1% 2 4223807 1408273 99%
c i  0.76 648 69 0  18  309  293  1% 2 4223807 1408272 99%
c i  0.76 648 69 0  18  310  293  1% 2 4223807 1408271 99%
c i  0.76 648 68 0  18  311  293  1% 2 4223807 1408270 99%
c i  0.76 648 68 0  18  312  293  1% 2 4223807 1408269 99%
c i  0.76 648 68 0  18  313  293  1% 2 4223807 1408217 99%
c i  0.76 648 67 0  18  315  294  1% 2 4223807 1408216 99%
c i  0.79 649 58 0  19  564  534  1% 2 4223807 1408125 99%
c i  0.79 649 58 0  19  568  536  1% 2 4223807 1408124 99%
c 
c  seconds   reductions  redundant   irredundant
c          MB    restarts       trail         variables
c           level   conflicts       glue            remaining
c 
c i  0.79 649 58 0  19  570  536  1% 2 4223807 1408123 99%
c i  0.79 649 58 0  19  574  538  1% 2 4223807 1408122 99%
c i  0.79 649 57 0  19  577  540  1% 2 4223807 1408070 99%
c i  0.79 649 57 0  19  587  548  1% 2 4223807 1408063 99%
c i  0.80 649 53 0  22  642  600  1% 2 4223807 1408062 99%
c i  0.80 649 53 0  23  645  602  1% 2 4223807 1408057 99%
c i  0.80 649 52 0  23  653  607  1% 2 4223807 1408037 99%
c i  0.80 649 52 0  23  654  607  1% 2 4223807 1408022 99%
c i  0.80 649 52 0  23  655  607  1% 2 4223807 1408021 99%
c i  0.80 649 52 0  23  657  608  1% 2 4223807 1408012 99%
c i  0.80 649 52 0  23  662  611  1% 2 4223807 1408011 99%
c i  0.80 649 53 0  23  666  613  1% 2 4223807 1407977 99%
c i  0.80 649 53 0  23  668  613  1% 2 4223807 1407956 99%
c i  0.80 649 53 0  23  674  618  1% 2 4223807 1407952 99%
c i  0.80 649 56 0  23  704  646  1% 2 4223807 1407951 99%
c i  0.80 649 56 0  23  705  646  1% 2 4223807 1407947 99%
c i  0.80 649 57 0  23  722  662  1% 2 4223807 1407946 99%
c i  0.80 649 57 0  23  723  662  1% 2 4223807 1407942 99%
c i  0.80 649 58 0  23  740  678  1% 2 4223807 1407941 99%
c i  0.80 649 58 0  23  741  678  1% 2 4223807 1407937 99%
c 
c  seconds   reductions  redundant   irredundant
c          MB    restarts       trail         variables
c           level   conflicts       glue            remaining
c 
c i  0.80 649 59 0  23  758  694  1% 2 4223807 1407936 99%
c i  0.80 649 59 0  23  759  694  1% 2 4223807 1407932 99%
c i  0.80 649 59 0  23  763  697  1% 2 4223807 1407931 99%
c i  0.80 649 59 0  23  778  709  1% 2 4223807 1407930 99%
... skipped 64 lines ...
c i  1.27 649 224 0  24 2884 2665  3% 8 4223807 1404807 99%
c i  1.27 649 224 0  24 2890 2670  3% 8 4223807 1404801 99%
c 
c  seconds    reductions  redundant   irredundant
c          MB     restarts       trail         variables
c            level   conflicts       glue            remaining
c 
c i  1.27 649 221 0  24 2956 2731  3% 8 4223807 1404795 99%
c i  1.28 649 220 0  24 3000 2773  3% 8 4223807 1404789 99%
c ]  1.28 649 220 0  24 3000 2773  3% 8 4223807 1404789 99%
c {  1.28 649 55 0  24 3000 2773  1% 1 4223807 1404789 99%
c i  1.28 649 55 0  24 3001 2773  1% 1 4223807 1404786 99%
c i  1.28 649 55 0  24 3002 2773  1% 1 4223807 1404782 99%
c F  1.28 649 55 0  24 3003 2773  1% 1 4223807 1404782 99%
c i  1.28 649 55 0  24 3003 2773  1% 1 4223807 1404777 99%
c i  1.28 649 55 0  24 3006 2775  1% 1 4223807 1404774 99%
c i  1.28 649 55 0  24 3007 2775  1% 1 4223807 1404772 99%
c i  1.28 649 55 0  24 3008 2775  1% 1 4223807 1404769 99%
c i  1.29 649 55 0  24 3010 2776  1% 1 4223807 1404767 99%
c i  1.29 649 55 0  24 3015 2780  1% 1 4223807 1404757 99%
c i  1.29 649 55 0  24 3016 2780  1% 1 4223807 1404742 99%
c i  1.29 649 55 0  24 3020 2782  1% 1 4223807 1404333 99%
c i  1.33 650 63 0  25 3151 2908  1% 1 4223807 1402339 99%
c i  1.33 650 63 0  25 3167 2922  1% 1 4223807 1402333 99%
c i  1.33 650 62 0  25 3173 2927  1% 1 4223807 1400973 99%
c i  1.33 650 62 0  25 3174 2927  1% 1 4223807 1400970 99%
c i  1.33 650 62 0  25 3175 2927  1% 1 4223807 1400968 99%
c 
c  seconds   reductions  redundant   irredundant
c          MB    restarts       trail         variables
c           level   conflicts       glue            remaining
c 
c i  1.34 650 62 0  30 3211 2962  1% 1 4223807 1400959 99%
c i  1.34 650 61 0  34 3224 2973  1% 1 4223807 1400949 99%
c i  1.34 650 61 0  35 3229 2977  1% 1 4223807 1400947 99%
c i  1.34 650 61 0  36 3231 2978  1% 1 4223807 1400926 99%
c i  1.34 650 61 0  37 3238 2984  1% 1 4223807 1400908 99%
c i  1.34 650 59 0  41 3276 3017  1% 1 4223807 1400848 99%
c i  1.34 650 59 0  41 3278 3018  1% 1 4223807 1398597 98%
c i  1.34 650 59 0  41 3284 3023  1% 1 4223807 1398596 98%
c i  1.35 650 60 0  41 3294 3030  1% 1 4223807 1398595 98%
c i  1.39 650 66 0  41 3418 3148  2% 1 4223807 1398589 98%
c i  1.39 650 65 0  45 3432 3160  2% 1 4223807 1395279 98%
c i  1.39 650 66 0  46 3434 3161  2% 1 4223807 1395268 98%
c i  1.39 650 65 0  46 3436 3162  2% 1 4223807 1395267 98%
c i  1.39 650 65 0  59 3505 3227  2% 1 4223807 1395266 98%
c }  1.39 650 64 0  64 3527 3242  2% 1 4223807 1392356 98%
c 0  1.39 650 64 0  64 3527 3242  2% 1 4223807 1392356 98%
c 
c --- [ result ] -------------------------------------------------------------
c 
s UNSATISFIABLE
c 
c --- [ run-time profiling ] -------------------------------------------------
c 
c process time taken by individual solving procedures
c (percentage relative to process time for solving)
c 
c         0.78   99.99% search
c         0.61   77.41% parse
c         0.41   52.40% stable
c         0.36   46.45% unstable
c         0.01    1.13% lucky
c         0.00    0.00% simplify
c   =================================
c         0.78   56.35% solve
c 
c last line shows process time for solving
c (percentage relative to total process time)
c 
c --- [ statistics ] ---------------------------------------------------------
c 
c chronological:              2116        59.99 %  of conflicts
c conflicts:                  3527      4504.82    per second
c decisions:                 14159     18084.40    per second
c fixed:                     27924         1.97 %  of all variables
c learned:                    3425        97.11 %  per conflict
c learned_lits:              39789       100.00 %  learned literals
c minimized:                     0         0.00 %  learned literals
c shrunken:                   4471        11.24 %  learned literals
c minishrunken:               1350         3.39 %  learned literals
c otfs:                         18         0.51 %  of conflict
c propagations:            2636272         3.37 M  per second
c rephased:                      2      1763.50    interval
c restarts:                     64        55.11    interval
c stabilizing:                   1        56.71 %  of conflicts
c subsumed:                     45         0.00 %  of all clauses
c strengthened:                 18         0.00 %  of all clauses
c 
c seconds are measured in process time for solving
c 
c --- [ resources ] ----------------------------------------------------------
c 
c total process time since initialization:         1.39    seconds
c total real time since initialization:            1.40    seconds
c maximum resident set size of process:          674.00    MB
c 
c --- [ shutting down ] ------------------------------------------------------
c 
c exit 20
